p cnf 60 248
1 2 3 0
4 5 6 0
7 8 9 0
10 11 12 0
13 14 15 0
16 17 18 0
19 20 21 0
22 23 24 0
25 26 27 0
28 29 30 0
31 32 33 0
34 35 36 0
37 38 39 0
40 41 42 0
43 44 45 0
46 47 48 0
49 50 51 0
52 53 54 0
55 56 57 0
58 59 60 0
-1 -2 0
-1 -3 0
-2 -3 0
-4 -5 0
-4 -6 0
-5 -6 0
-7 -8 0
-7 -9 0
-8 -9 0
-10 -11 0
-10 -12 0
-11 -12 0
-13 -14 0
-13 -15 0
-14 -15 0
-16 -17 0
-16 -18 0
-17 -18 0
-19 -20 0
-19 -21 0
-20 -21 0
-22 -23 0
-22 -24 0
-23 -24 0
-25 -26 0
-25 -27 0
-26 -27 0
-28 -29 0
-28 -30 0
-29 -30 0
-31 -32 0
-31 -33 0
-32 -33 0
-34 -35 0
-34 -36 0
-35 -36 0
-37 -38 0
-37 -39 0
-38 -39 0
-40 -41 0
-40 -42 0
-41 -42 0
-43 -44 0
-43 -45 0
-44 -45 0
-46 -47 0
-46 -48 0
-47 -48 0
-49 -50 0
-49 -51 0
-50 -51 0
-52 -53 0
-52 -54 0
-53 -54 0
-55 -56 0
-55 -57 0
-56 -57 0
-58 -59 0
-58 -60 0
-59 -60 0
-1 -22 0
-1 -34 0
-1 -49 0
-4 -10 0
-4 -52 0
-4 -58 0
-7 -34 0
-7 -49 0
-7 -55 0
-10 -4 0
-10 -46 0
-10 -58 0
-13 -28 0
-13 -43 0
-13 -49 0
-16 -46 0
-16 -55 0
-19 -37 0
-19 -55 0
-19 -58 0
-22 -1 0
-22 -34 0
-22 -43 0
-25 -28 0
-25 -40 0
-25 -52 0
-28 -13 0
-28 -25 0
-28 -52 0
-31 -37 0
-31 -40 0
-34 -1 0
-34 -7 0
-34 -22 0
-37 -19 0
-37 -31 0
-37 -43 0
-40 -25 0
-40 -31 0
-43 -13 0
-43 -22 0
-43 -37 0
-46 -10 0
-46 -16 0
-49 -1 0
-49 -7 0
-49 -13 0
-52 -4 0
-52 -25 0
-52 -28 0
-55 -7 0
-55 -16 0
-55 -19 0
-58 -4 0
-58 -10 0
-58 -19 0
-2 -23 0
-2 -35 0
-2 -50 0
-5 -11 0
-5 -53 0
-5 -59 0
-8 -35 0
-8 -50 0
-8 -56 0
-11 -5 0
-11 -47 0
-11 -59 0
-14 -29 0
-14 -44 0
-14 -50 0
-17 -47 0
-17 -56 0
-20 -38 0
-20 -56 0
-20 -59 0
-23 -2 0
-23 -35 0
-23 -44 0
-26 -29 0
-26 -41 0
-26 -53 0
-29 -14 0
-29 -26 0
-29 -53 0
-32 -38 0
-32 -41 0
-35 -2 0
-35 -8 0
-35 -23 0
-38 -20 0
-38 -32 0
-38 -44 0
-41 -26 0
-41 -32 0
-44 -14 0
-44 -23 0
-44 -38 0
-47 -11 0
-47 -17 0
-50 -2 0
-50 -8 0
-50 -14 0
-53 -5 0
-53 -26 0
-53 -29 0
-56 -8 0
-56 -17 0
-56 -20 0
-59 -5 0
-59 -11 0
-59 -20 0
-3 -24 0
-3 -36 0
-3 -51 0
-6 -12 0
-6 -54 0
-6 -60 0
-9 -36 0
-9 -51 0
-9 -57 0
-12 -6 0
-12 -48 0
-12 -60 0
-15 -30 0
-15 -45 0
-15 -51 0
-18 -48 0
-18 -57 0
-21 -39 0
-21 -57 0
-21 -60 0
-24 -3 0
-24 -36 0
-24 -45 0
-27 -30 0
-27 -42 0
-27 -54 0
-30 -15 0
-30 -27 0
-30 -54 0
-33 -39 0
-33 -42 0
-36 -3 0
-36 -9 0
-36 -24 0
-39 -21 0
-39 -33 0
-39 -45 0
-42 -27 0
-42 -33 0
-45 -15 0
-45 -24 0
-45 -39 0
-48 -12 0
-48 -18 0
-51 -3 0
-51 -9 0
-51 -15 0
-54 -6 0
-54 -27 0
-54 -30 0
-57 -9 0
-57 -18 0
-57 -21 0
-60 -6 0
-60 -12 0
-60 -21 0
